(declare-const delta_p Int)
(declare-const delta_q Int)
(declare-const delta_s Int)
(declare-const delta_r Int)
(assert (exists
         ((|r'?1| Int) (|p'?2| Int) (|s'?3| Int) (|S1,0?4| Real) (|q'?5| Int)
            (KSUM1?6 Int) (|K1,0?7| Int) (K?8 Int) (|q'?9| Int) (|s'?10| Int)
            (|p'?11| Int) (s?12 Int) (np?13 Int) (p?14 Int) (nq?15 Int)
            (q?16 Int) (nr?17 Int) (r?18 Int))
         (and (<= (- r?18) 0) (< (+ (- nr?17) r?18) 0) (<= (- K?8) 0)
                (<= (- |K1,0?7|) 0) (= (+ |K1,0?7| (- K?8)) 0)
                (<= (+ KSUM1?6 (- K?8)) 0)
                (= (+ (- |S1,0?4|) |q'?5| (- |K1,0?7|)) 0)
                (= (+ (- KSUM1?6) |K1,0?7|) 0) (= |S1,0?4| 0)
                (or (and (= K?8 0) (= (+ (- |s'?3|) s?12) 0)
                           (= (+ (- |p'?2|) p?14) 0) (= (- |q'?5|) 0))
                      (and (<= (+ (- K?8) 1) 0) (<= (+ (- nq?15) 1) 0)
                             (<= (+ (- nq?15) |q'?5|) 0)
                             (<= (+ np?13 (- |p'?2|)) 0) (<= (- |p'?2|) 0)
                             (<= (+ (- |q'?5|) 1) 0)))
                (= (+ |q'?5| (- K?8)) 0) (<= (- K?8) 0) (<= (- |q'?5|) 0)
                (<= (+ nq?15 (- |q'?5|)) 0) (= (+ |s'?10| (- |s'?3|)) 0)
                (= (+ |p'?11| (- |p'?2|)) 0) (= (+ |q'?9| (- |q'?5|)) 0)
                (= (+ |r'?1| (- r?18) -1) 0) (= delta_r (+ |r'?1| (- r?18)))
                (= delta_q (+ |q'?9| (- q?16)))
                (= delta_p (+ |p'?11| (- p?14)))
                (= delta_s (+ |s'?10| (- s?12))))))
(check-sat)
